============================[ Problem Statistics ]=============================
|                                                                             |
|  Number of variables:           162                                         |
|  Number of clauses:             774                                         |
|  Parse time:                   0.00 s                                       |
|  Eliminated clauses:           0.00 Mb                                      |
|  Simplification time:          0.00 s                                       |
|                                                                             |
============================[ Search Statistics ]==============================
| Conflicts |          ORIGINAL         |          LEARNT          | Progress |
|           |    Vars  Clauses Literals |    Limit  Clauses Lit/Cl |          |
===============================================================================
|       100 |     113      676     2700 |      247      100     18 |  0.004 % |
|       250 |     113      676     2700 |      272      250     20 |  0.004 % |
|       475 |     113      676     2700 |      299      169     13 |  0.004 % |
|       812 |     113      676     2700 |      329      167     10 |  0.004 % |
|      1318 |     113      676     2700 |      362      297     13 |  0.004 % |
|      2077 |     113      676     2700 |      399      271     12 |  0.004 % |
|      3216 |     113      676     2700 |      439      339     12 |  0.004 % |
|      4924 |     113      676     2700 |      483      404     13 |  0.004 % |
|      7486 |     113      676     2700 |      531      428     13 |  0.004 % |
|     11330 |     113      676     2700 |      584      332     10 |  0.004 % |
|     17096 |     113      676     2700 |      642      553     13 |  0.004 % |
|     25745 |     113      676     2700 |      707      481     12 |  0.004 % |
|     38719 |     113      676     2700 |      777      616     13 |  0.004 % |
|     58180 |     113      676     2700 |      855      458     10 |  0.004 % |
|     87372 |     113      676     2700 |      941      454     11 |  0.004 % |
|    131161 |     113      676     2700 |     1035      707     13 |  0.004 % |
|    196845 |     113      676     2700 |     1138      930     15 |  0.004 % |
|    295371 |     113      676     2700 |     1252      907     14 |  0.004 % |
|    443160 |     113      676     2700 |     1378      854     14 |  0.004 % |
|    664843 |     113      676     2700 |     1515      960     13 |  0.004 % |
|    997368 |     113      676     2700 |     1667     1156     14 |  0.004 % |
|   1496156 |     113      676     2700 |     1834     1375     16 |  0.004 % |
|   2244338 |     113      676     2700 |     2017     1469     14 |  0.004 % |
|   3366612 |     113      676     2700 |     2219     1494     15 |  0.004 % |
|   5050023 |     113      676     2700 |     2441     2084     14 |  0.004 % |
|   7575139 |     113      676     2700 |     2685     2072     15 |  0.004 % |
|  11362814 |     113      676     2700 |     2954     2565     14 |  0.004 % |
|  17044326 |     113      676     2700 |     3249     2176     16 |  0.004 % |
|  25566595 |     113      676     2700 |     3574     3025     15 |  0.004 % |
|  38349998 |     113      676     2700 |     3931     2624     14 |  0.004 % |
===============================================================================
restarts              : 65535
conflicts             : 50133511       (172781 /sec)
decisions             : 58308211       (0.00 % random) (200955 /sec)
propagations          : 1550095552     (5342280 /sec)
conflict literals     : 840967373      (25.07 % deleted)
Memory used           : 18.15 MB
CPU time              : 290.156 s

UNSATISFIABLE
File /Users/damy17/Documents/hw-uni/master-1-uvt/verificare-formala/benchmark/input-files/benchmarkfile25.cnf completed successfully.
